24
112
2
91,54,6,55,7,98,95,81,70,1,71,26,47,46,66,84,14,11,47,22,6,12,27,99
39,77,53,92,53,92,82,55,22,32,3,40,63,1,67,40,60,22,31,11,38,91,49,79
1,2,2,2,1,2,2,1,2,2,2,1,2,2,1,2,1,1,2,1,1,2,2,1
